p wcnf 161 242 243 
1 62 -57 0 
1 141 -153 0 
1 -101 -25 0 
1 -40 41 0 
1 -67 -46 0 
1 92 -95 0 
1 84 26 0 
1 97 24 0 
1 87 -59 0 
1 -105 -149 0 
1 84 5 0 
1 -57 -148 0 
1 121 68 0 
1 111 129 0 
1 -72 -150 0 
1 -89 125 0 
1 96 33 0 
1 -139 140 0 
1 40 25 0 
1 -135 21 0 
1 44 -84 0 
1 -105 -75 0 
1 -83 102 0 
1 -45 140 0 
1 36 159 0 
1 65 2 0 
1 59 -144 0 
1 -63 78 0 
1 10 -65 0 
1 155 -126 0 
1 -135 14 0 
1 117 18 0 
1 25 -26 0 
1 -104 129 0 
1 62 -43 0 
1 -59 81 0 
1 -157 109 0 
1 65 104 0 
1 -156 -33 0 
1 130 161 0 
1 127 -8 0 
1 -67 43 0 
1 -10 -79 0 
1 24 -107 0 
1 -4 110 0 
1 21 -82 0 
1 85 -19 0 
1 79 -112 0 
1 -148 -71 0 
1 -100 -37 0 
1 -101 15 0 
1 43 -13 0 
1 71 -42 0 
1 -29 108 0 
1 -40 -143 0 
1 -141 24 0 
1 -110 -8 0 
1 -161 -76 0 
1 43 80 0 
1 40 125 0 
1 -120 -85 0 
1 38 98 0 
1 105 -156 0 
1 -52 88 0 
1 -35 -76 0 
1 119 -94 0 
1 46 -60 0 
1 -15 -43 0 
1 159 104 0 
1 117 146 0 
1 -154 15 0 
1 -131 22 0 
1 99 30 0 
1 29 38 0 
1 -74 -77 0 
1 34 120 0 
1 23 -146 0 
1 -157 99 0 
1 116 -76 0 
1 -73 80 0 
1 -93 -15 0 
1 105 101 0 
1 -139 -40 0 
1 -85 -58 0 
1 -125 141 0 
1 -28 121 0 
1 -30 92 0 
1 -88 -117 0 
1 -107 94 0 
1 -49 133 0 
1 107 70 0 
1 -111 38 0 
1 75 22 0 
1 99 32 0 
1 60 -2 0 
1 6 -50 0 
1 109 50 0 
1 -40 100 0 
1 -109 97 0 
1 110 -78 0 
1 -65 -67 0 
1 -97 5 0 
1 -116 -149 0 
1 67 53 0 
1 50 -29 0 
1 -152 33 0 
1 -73 68 0 
1 -88 90 0 
1 -10 86 0 
1 -63 -54 0 
1 122 46 0 
1 47 -121 0 
1 32 -101 0 
1 37 -143 0 
1 -159 95 0 
1 32 -83 0 
1 37 -47 0 
1 -101 -17 0 
1 82 102 0 
1 84 97 0 
1 -157 55 0 
1 44 158 0 
1 -13 -117 0 
1 -96 -100 0 
1 -73 2 0 
1 30 -64 0 
1 13 -81 0 
1 -115 134 0 
1 -21 -34 0 
1 -65 -11 0 
1 -27 9 0 
1 135 65 0 
1 136 -74 0 
1 159 -70 0 
1 -26 75 0 
1 -42 -127 0 
1 1 -74 0 
1 -41 130 0 
1 66 -108 0 
1 123 -15 0 
1 151 9 0 
1 -14 -121 0 
1 85 -59 0 
1 148 -59 0 
1 111 -153 0 
1 -92 86 0 
1 140 119 0 
1 -85 -84 0 
1 -4 -111 0 
1 -96 11 0 
1 47 -94 0 
1 124 32 0 
1 -13 -80 0 
1 123 -26 0 
1 -63 94 0 
1 -102 -66 0 
1 84 75 0 
1 65 157 0 
1 -110 43 0 
1 140 135 0 
1 51 73 0 
1 27 154 0 
1 -85 45 0 
1 -39 9 0 
1 -56 37 0 
1 54 58 0 
1 32 -58 0 
1 -41 131 0 
1 -50 -120 0 
1 153 38 0 
1 6 37 0 
1 -103 93 0 
1 45 -115 0 
1 150 -20 0 
1 27 -7 0 
1 -18 76 0 
1 -2 139 0 
1 -4 -20 0 
1 -137 -104 0 
1 89 -132 0 
1 15 -161 0 
1 71 -112 0 
1 30 150 0 
1 -12 25 0 
1 3 -103 0 
1 80 -9 0 
1 -81 -45 0 
1 -14 -89 0 
1 -145 158 0 
1 -8 126 0 
1 -128 6 0 
1 -33 -70 0 
1 -89 158 0 
1 70 31 0 
1 -25 -23 0 
1 -90 128 0 
1 -107 2 0 
1 -118 156 0 
1 -110 159 0 
1 84 -75 0 
1 7 -120 0 
1 41 -69 0 
1 -58 -16 0 
1 -152 81 0 
1 -8 94 0 
1 -115 93 0 
1 88 -76 0 
1 -108 -150 0 
1 49 59 0 
1 -95 -160 0 
1 -134 15 0 
1 -37 96 0 
1 -152 48 0 
1 -118 111 0 
1 -101 -83 0 
1 24 -45 0 
1 46 76 0 
1 -108 47 0 
1 143 -96 0 
1 -38 -70 0 
1 -141 93 0 
1 106 -100 0 
1 -47 -65 0 
1 -115 -63 0 
1 43 -29 0 
1 -14 -76 0 
1 113 -103 0 
1 33 -139 0 
1 -74 -12 0 
1 -78 -15 0 
1 47 -51 0 
1 7 53 0 
1 -87 108 0 
1 128 9 0 
1 -155 -115 0 
1 -40 -89 0 
1 -125 -150 0 
1 -103 -46 0 
1 143 51 0 
1 116 78 0 
1 17 -145 0 
1 80 92 0 
